Version identifier: 12.10.0.0 | 2019-11-26 | 843d4de
CPXPARAM_WorkMem                                 28672
Tried aggregator 2 times.
Aggregator did 20 substitutions.
Reduced MIP has 73 rows, 90 columns, and 333 nonzeros.
Reduced MIP has 90 binaries, 0 generals, 0 SOSs, and 0 indicators.
Presolve time = 0,00 sec. (0,31 ticks)
Found incumbent of value 60,000000 after 0,00 sec. (0,53 ticks)
Probing time = 0,00 sec. (0,10 ticks)
Tried aggregator 1 time.
Detecting symmetries...
MIP Presolve eliminated 6 rows and 0 columns.
MIP Presolve added 12 rows and 0 columns.
Reduced MIP has 79 rows, 90 columns, and 339 nonzeros.
Reduced MIP has 90 binaries, 0 generals, 0 SOSs, and 0 indicators.
Presolve time = 0,00 sec. (0,39 ticks)
Probing time = 0,00 sec. (0,10 ticks)
Clique table members: 223.
MIP emphasis: balance optimality and feasibility.
MIP search method: dynamic search.
Parallel mode: deterministic, using up to 16 threads.
Root relaxation solution time = 0,00 sec. (0,12 ticks)

        Nodes                                         Cuts/
   Node  Left     Objective  IInf  Best Integer    Best Bound    ItCnt     Gap

*     0+    0                           60,0000        0,0000           100,00%
*     0+    0                           37,0000        0,0000           100,00%
*     0+    0                           36,0000        0,0000           100,00%
      0     0       20,0000    37       36,0000       20,0000       12   44,44%
      0     0       20,0000    37       36,0000     Cuts: 119       36   44,44%
      0     0       20,0000    37       36,0000      Cuts: 69       58   44,44%
      0     0       20,0000    37       36,0000     Cuts: 109      100   44,44%
*     0+    0                           34,0000       20,0000            41,18%
      0     2       22,2667    33       34,0000       21,3000      125   37,35%
Elapsed time = 0,03 sec. (7,75 ticks, tree = 0,02 MB, solutions = 4)

Clique cuts applied:  12
Cover cuts applied:  45

Root node processing (before b&c):
  Real time             =    0,03 sec. (7,71 ticks)
Parallel b&c, 16 threads:
  Real time             =    0,02 sec. (5,46 ticks)
  Sync time (average)   =    0,01 sec.
  Wait time (average)   =    0,00 sec.
                          ------------
Total (root+branch&cut) =    0,05 sec. (13,17 ticks)
